(set-logic QF_LIA)
(declare-fun x0 () Int)
(declare-fun x1 () Int)
(declare-fun x2 () Int)
(declare-fun x3 () Int)
(declare-fun x4 () Int)
(declare-fun x5 () Int)
(declare-fun x6 () Int)
(declare-fun x7 () Int)
(declare-fun x8 () Int)
(declare-fun x9 () Int)
(declare-fun A0 () Bool)
(declare-fun A1 () Bool)
(declare-fun A2 () Bool)
(declare-fun A3 () Bool)
(declare-fun A4 () Bool)
(declare-fun A5 () Bool)
(declare-fun A6 () Bool)
(declare-fun A7 () Bool)
(declare-fun A8 () Bool)
(declare-fun A9 () Bool)
(assert (let ((.def_0 (* 1 x0))) (let ((.def_1 (< .def_0 (- 1)))) (let ((.def_2 (or A5 .def_1))) (let ((.def_3 (not .def_2))) (let ((.def_4 (* 1 x3))) (let ((.def_5 (* (- 1) x1))) (let ((.def_6 (+ .def_5 .def_4))) (let ((.def_7 (< .def_6 1))) (let ((.def_8 (not .def_7))) (let ((.def_9 (* (- 1) x8))) (let ((.def_10 (< .def_9 (- 1)))) (let ((.def_11 (and .def_10 .def_8))) (let ((.def_12 (or .def_11 .def_3))) (let ((.def_13 (* (- 1) x9))) (let ((.def_14 (< .def_13 1))) (let ((.def_15 (and A4 .def_14))) (let ((.def_16 (not .def_15))) (let ((.def_17 (not A3))) (let ((.def_18 (* (- 1) x2))) (let ((.def_19 (* 1 x1))) (let ((.def_20 (+ .def_19 .def_18))) (let ((.def_21 (< .def_20 (- 1)))) (let ((.def_22 (or .def_21 .def_17))) (let ((.def_23 (and .def_22 .def_16))) (let ((.def_24 (not .def_23))) (let ((.def_25 (or .def_24 .def_12))) (let ((.def_26 (not .def_25))) (let ((.def_27 (* (- 1) x7))) (let ((.def_28 (* (- 1) x3))) (let ((.def_29 (+ .def_28 .def_27))) (let ((.def_30 (< .def_29 (- 1)))) (let ((.def_31 (not .def_30))) (let ((.def_32 (or A1 .def_31))) (let ((.def_33 (* 1 x9))) (let ((.def_34 (* 1 x5))) (let ((.def_35 (+ .def_34 .def_33))) (let ((.def_36 (< .def_35 (- 1)))) (let ((.def_37 (not .def_36))) (let ((.def_38 (* 1 x2))) (let ((.def_39 (+ .def_33 .def_38))) (let ((.def_40 (< .def_39 (- 1)))) (let ((.def_41 (not .def_40))) (let ((.def_42 (or .def_41 .def_37))) (let ((.def_43 (and .def_42 .def_32))) (let ((.def_44 (< .def_18 (- 1)))) (let ((.def_45 (not .def_44))) (let ((.def_46 (* 1 x7))) (let ((.def_47 (+ .def_13 .def_46))) (let ((.def_48 (< .def_47 1))) (let ((.def_49 (not .def_48))) (let ((.def_50 (and .def_49 .def_45))) (let ((.def_51 (not A7))) (let ((.def_52 (and .def_51 .def_51))) (let ((.def_53 (and .def_52 .def_50))) (let ((.def_54 (or .def_53 .def_43))) (let ((.def_55 (not .def_54))) (let ((.def_56 (or .def_55 .def_26))) (let ((.def_57 (not .def_56))) (let ((.def_58 (* (- 1) x4))) (let ((.def_59 (< .def_58 1))) (let ((.def_60 (and .def_59 A7))) (let ((.def_61 (not A6))) (let ((.def_62 (* (- 1) x6))) (let ((.def_63 (+ .def_13 .def_62))) (let ((.def_64 (< .def_63 (- 1)))) (let ((.def_65 (and .def_64 .def_61))) (let ((.def_66 (or .def_65 .def_60))) (let ((.def_67 (+ .def_33 .def_34))) (let ((.def_68 (< .def_67 1))) (let ((.def_69 (not .def_68))) (let ((.def_70 (and .def_69 A8))) (let ((.def_71 (not .def_70))) (let ((.def_72 (not A2))) (let ((.def_73 (not A8))) (let ((.def_74 (or .def_73 .def_72))) (let ((.def_75 (not .def_74))) (let ((.def_76 (and .def_75 .def_71))) (let ((.def_77 (not .def_76))) (let ((.def_78 (or .def_77 .def_66))) (let ((.def_79 (not .def_78))) (let ((.def_80 (+ .def_0 .def_46))) (let ((.def_81 (< .def_80 1))) (let ((.def_82 (and .def_81 A7))) (let ((.def_83 (not .def_82))) (let ((.def_84 (< .def_13 (- 1)))) (let ((.def_85 (not .def_84))) (let ((.def_86 (and .def_85 .def_61))) (let ((.def_87 (not .def_86))) (let ((.def_88 (and .def_87 .def_83))) (let ((.def_89 (not A1))) (let ((.def_90 (+ .def_0 .def_18))) (let ((.def_91 (< .def_90 1))) (let ((.def_92 (not .def_91))) (let ((.def_93 (or .def_92 .def_89))) (let ((.def_94 (* 1 x8))) (let ((.def_95 (< .def_94 (- 1)))) (let ((.def_96 (or .def_95 A3))) (let ((.def_97 (or .def_96 .def_93))) (let ((.def_98 (or .def_97 .def_88))) (let ((.def_99 (not .def_98))) (let ((.def_100 (or .def_99 .def_79))) (let ((.def_101 (not .def_100))) (let ((.def_102 (or .def_101 .def_57))) (let ((.def_103 (not .def_102))) (let ((.def_104 (< .def_27 (- 1)))) (let ((.def_105 (not .def_104))) (let ((.def_106 (and .def_73 .def_105))) (let ((.def_107 (not A5))) (let ((.def_108 (and A9 .def_107))) (let ((.def_109 (not .def_108))) (let ((.def_110 (or .def_109 .def_106))) (let ((.def_111 (not .def_110))) (let ((.def_112 (or A5 .def_17))) (let ((.def_113 (not .def_112))) (let ((.def_114 (and .def_89 .def_61))) (let ((.def_115 (or .def_114 .def_113))) (let ((.def_116 (and .def_115 .def_111))) (let ((.def_117 (not .def_116))) (let ((.def_118 (+ .def_27 .def_33))) (let ((.def_119 (< .def_118 (- 1)))) (let ((.def_120 (not A0))) (let ((.def_121 (or .def_120 .def_119))) (let ((.def_122 (not .def_121))) (let ((.def_123 (* (- 1) x0))) (let ((.def_124 (+ .def_5 .def_123))) (let ((.def_125 (< .def_124 (- 1)))) (let ((.def_126 (not .def_125))) (let ((.def_127 (< .def_28 (- 1)))) (let ((.def_128 (or .def_127 .def_126))) (let ((.def_129 (not .def_128))) (let ((.def_130 (and .def_129 .def_122))) (let ((.def_131 (not .def_130))) (let ((.def_132 (* 1 x6))) (let ((.def_133 (+ .def_132 .def_19))) (let ((.def_134 (< .def_133 (- 1)))) (let ((.def_135 (not .def_134))) (let ((.def_136 (and .def_135 A7))) (let ((.def_137 (< .def_46 (- 1)))) (let ((.def_138 (not .def_137))) (let ((.def_139 (and .def_89 .def_138))) (let ((.def_140 (and .def_139 .def_136))) (let ((.def_141 (and .def_140 .def_131))) (let ((.def_142 (not .def_141))) (let ((.def_143 (or .def_142 .def_117))) (let ((.def_144 (and .def_72 A2))) (let ((.def_145 (not .def_144))) (let ((.def_146 (< .def_19 1))) (let ((.def_147 (not .def_146))) (let ((.def_148 (or .def_147 .def_61))) (let ((.def_149 (or .def_148 .def_145))) (let ((.def_150 (+ .def_38 .def_9))) (let ((.def_151 (< .def_150 1))) (let ((.def_152 (+ .def_27 .def_94))) (let ((.def_153 (< .def_152 1))) (let ((.def_154 (or .def_153 .def_151))) (let ((.def_155 (= A5 .def_51))) (let ((.def_156 (and .def_155 .def_154))) (let ((.def_157 (and .def_156 .def_149))) (let ((.def_158 (+ .def_38 .def_33))) (let ((.def_159 (< .def_158 1))) (let ((.def_160 (not .def_159))) (let ((.def_161 (or .def_160 A3))) (let ((.def_162 (not A4))) (let ((.def_163 (or .def_73 .def_162))) (let ((.def_164 (not .def_163))) (let ((.def_165 (and .def_164 .def_161))) (let ((.def_166 (not .def_165))) (let ((.def_167 (< .def_33 (- 1)))) (let ((.def_168 (not .def_167))) (let ((.def_169 (+ .def_0 .def_38))) (let ((.def_170 (< .def_169 (- 1)))) (let ((.def_171 (and .def_170 .def_168))) (let ((.def_172 (or A0 .def_61))) (let ((.def_173 (not .def_172))) (let ((.def_174 (or .def_173 .def_171))) (let ((.def_175 (or .def_174 .def_166))) (let ((.def_176 (not .def_175))) (let ((.def_177 (= .def_176 .def_157))) (let ((.def_178 (and .def_177 .def_143))) (let ((.def_179 (or .def_178 .def_103))) (let ((.def_180 (not .def_179))) (let ((.def_181 (+ .def_62 .def_34))) (let ((.def_182 (< .def_181 (- 1)))) (let ((.def_183 (or A8 .def_182))) (let ((.def_184 (not .def_95))) (let ((.def_185 (and .def_184 A8))) (let ((.def_186 (or .def_185 .def_183))) (let ((.def_187 (and .def_89 .def_51))) (let ((.def_188 (* (- 1) x5))) (let ((.def_189 (< .def_188 1))) (let ((.def_190 (= .def_59 .def_189))) (let ((.def_191 (= .def_190 .def_187))) (let ((.def_192 (and .def_191 .def_186))) (let ((.def_193 (+ .def_13 .def_28))) (let ((.def_194 (< .def_193 1))) (let ((.def_195 (= A2 .def_194))) (let ((.def_196 (< .def_132 (- 1)))) (let ((.def_197 (not .def_196))) (let ((.def_198 (and .def_197 .def_89))) (let ((.def_199 (or .def_198 .def_195))) (let ((.def_200 (+ .def_4 .def_132))) (let ((.def_201 (< .def_200 1))) (let ((.def_202 (not .def_201))) (let ((.def_203 (+ .def_58 .def_5))) (let ((.def_204 (< .def_203 1))) (let ((.def_205 (not .def_204))) (let ((.def_206 (or .def_205 .def_202))) (let ((.def_207 (+ .def_9 .def_123))) (let ((.def_208 (< .def_207 1))) (let ((.def_209 (or A4 .def_208))) (let ((.def_210 (or .def_209 .def_206))) (let ((.def_211 (not .def_210))) (let ((.def_212 (or .def_211 .def_199))) (let ((.def_213 (and .def_212 .def_192))) (let ((.def_214 (< .def_58 (- 1)))) (let ((.def_215 (not .def_214))) (let ((.def_216 (or .def_197 .def_215))) (let ((.def_217 (< .def_33 1))) (let ((.def_218 (or .def_217 A9))) (let ((.def_219 (not .def_218))) (let ((.def_220 (or .def_219 .def_216))) (let ((.def_221 (not .def_220))) (let ((.def_222 (not .def_127))) (let ((.def_223 (and .def_89 .def_222))) (let ((.def_224 (or A3 .def_126))) (let ((.def_225 (not .def_224))) (let ((.def_226 (or .def_225 .def_223))) (let ((.def_227 (not .def_226))) (let ((.def_228 (= .def_227 .def_221))) (let ((.def_229 (and .def_72 A4))) (let ((.def_230 (and .def_89 A7))) (let ((.def_231 (not .def_230))) (let ((.def_232 (and .def_231 .def_229))) (let ((.def_233 (not .def_232))) (let ((.def_234 (< .def_27 1))) (let ((.def_235 (not .def_234))) (let ((.def_236 (< .def_46 1))) (let ((.def_237 (and .def_236 .def_235))) (let ((.def_238 (not .def_237))) (let ((.def_239 (not .def_10))) (let ((.def_240 (= .def_107 .def_239))) (let ((.def_241 (not .def_240))) (let ((.def_242 (and .def_241 .def_238))) (let ((.def_243 (= .def_242 .def_233))) (let ((.def_244 (not .def_243))) (let ((.def_245 (= .def_244 .def_228))) (let ((.def_246 (and .def_245 .def_213))) (let ((.def_247 (or .def_72 .def_73))) (let ((.def_248 (not .def_247))) (let ((.def_249 (and A7 A6))) (let ((.def_250 (not .def_249))) (let ((.def_251 (and .def_250 .def_248))) (let ((.def_252 (< .def_123 (- 1)))) (let ((.def_253 (= .def_120 .def_252))) (let ((.def_254 (or A0 .def_68))) (let ((.def_255 (and .def_254 .def_253))) (let ((.def_256 (not .def_255))) (let ((.def_257 (and .def_256 .def_251))) (let ((.def_258 (not .def_257))) (let ((.def_259 (not A9))) (let ((.def_260 (= A5 .def_259))) (let ((.def_261 (and A5 A2))) (let ((.def_262 (not .def_261))) (let ((.def_263 (and .def_262 .def_260))) (let ((.def_264 (not .def_263))) (let ((.def_265 (< .def_38 (- 1)))) (let ((.def_266 (or A5 .def_265))) (let ((.def_267 (* 1 x4))) (let ((.def_268 (+ .def_267 .def_38))) (let ((.def_269 (< .def_268 1))) (let ((.def_270 (and .def_269 .def_17))) (let ((.def_271 (not .def_270))) (let ((.def_272 (or .def_271 .def_266))) (let ((.def_273 (= .def_272 .def_264))) (let ((.def_274 (not .def_273))) (let ((.def_275 (and .def_274 .def_258))) (let ((.def_276 (not .def_275))) (let ((.def_277 (+ .def_62 .def_0))) (let ((.def_278 (< .def_277 1))) (let ((.def_279 (and A5 .def_278))) (let ((.def_280 (or .def_259 .def_120))) (let ((.def_281 (not .def_280))) (let ((.def_282 (or .def_281 .def_279))) (let ((.def_283 (not .def_59))) (let ((.def_284 (or .def_283 A3))) (let ((.def_285 (not .def_284))) (let ((.def_286 (+ .def_5 .def_62))) (let ((.def_287 (< .def_286 (- 1)))) (let ((.def_288 (or .def_287 .def_61))) (let ((.def_289 (not .def_288))) (let ((.def_290 (or .def_289 .def_285))) (let ((.def_291 (and .def_290 .def_282))) (let ((.def_292 (and .def_73 .def_1))) (let ((.def_293 (not .def_292))) (let ((.def_294 (+ .def_123 .def_267))) (let ((.def_295 (< .def_294 1))) (let ((.def_296 (not .def_295))) (let ((.def_297 (< .def_132 1))) (let ((.def_298 (and .def_297 .def_296))) (let ((.def_299 (not .def_298))) (let ((.def_300 (and .def_299 .def_293))) (let ((.def_301 (and .def_72 A1))) (let ((.def_302 (and A7 .def_73))) (let ((.def_303 (not .def_302))) (let ((.def_304 (or .def_303 .def_301))) (let ((.def_305 (not .def_304))) (let ((.def_306 (and .def_305 .def_300))) (let ((.def_307 (and .def_306 .def_291))) (let ((.def_308 (not .def_307))) (let ((.def_309 (or .def_308 .def_276))) (let ((.def_310 (or .def_309 .def_246))) (let ((.def_311 (or .def_310 .def_180))) (let ((.def_312 (and A2 .def_73))) (let ((.def_313 (not .def_312))) (let ((.def_314 (or A2 .def_120))) (let ((.def_315 (not .def_314))) (let ((.def_316 (and .def_315 .def_313))) (let ((.def_317 (< .def_9 1))) (let ((.def_318 (not .def_317))) (let ((.def_319 (or A3 .def_318))) (let ((.def_320 (not .def_319))) (let ((.def_321 (+ .def_62 .def_19))) (let ((.def_322 (< .def_321 1))) (let ((.def_323 (not .def_322))) (let ((.def_324 (and .def_323 A2))) (let ((.def_325 (not .def_324))) (let ((.def_326 (or .def_325 .def_320))) (let ((.def_327 (or .def_326 .def_316))) (let ((.def_328 (not .def_327))) (let ((.def_329 (< .def_188 (- 1)))) (let ((.def_330 (not .def_329))) (let ((.def_331 (and .def_95 .def_330))) (let ((.def_332 (and A7 A9))) (let ((.def_333 (or .def_332 .def_331))) (let ((.def_334 (not .def_333))) (let ((.def_335 (and A9 A0))) (let ((.def_336 (not .def_335))) (let ((.def_337 (+ .def_9 .def_18))) (let ((.def_338 (< .def_337 (- 1)))) (let ((.def_339 (< .def_267 (- 1)))) (let ((.def_340 (not .def_339))) (let ((.def_341 (and .def_340 .def_338))) (let ((.def_342 (not .def_341))) (let ((.def_343 (and .def_342 .def_336))) (let ((.def_344 (and .def_343 .def_334))) (let ((.def_345 (and .def_344 .def_328))) (let ((.def_346 (or .def_107 .def_51))) (let ((.def_347 (< .def_267 1))) (let ((.def_348 (< .def_18 1))) (let ((.def_349 (not .def_348))) (let ((.def_350 (and .def_349 .def_347))) (let ((.def_351 (or .def_350 .def_346))) (let ((.def_352 (and A9 A5))) (let ((.def_353 (not .def_352))) (let ((.def_354 (+ .def_33 .def_27))) (let ((.def_355 (< .def_354 1))) (let ((.def_356 (not .def_355))) (let ((.def_357 (and .def_356 .def_146))) (let ((.def_358 (and .def_357 .def_353))) (let ((.def_359 (or .def_358 .def_351))) (let ((.def_360 (+ .def_18 .def_4))) (let ((.def_361 (< .def_360 1))) (let ((.def_362 (and .def_361 .def_259))) (let ((.def_363 (< .def_5 (- 1)))) (let ((.def_364 (not .def_297))) (let ((.def_365 (and .def_364 .def_363))) (let ((.def_366 (= .def_365 .def_362))) (let ((.def_367 (< .def_28 1))) (let ((.def_368 (and .def_367 .def_120))) (let ((.def_369 (< .def_62 (- 1)))) (let ((.def_370 (not .def_369))) (let ((.def_371 (and A0 .def_370))) (let ((.def_372 (not .def_371))) (let ((.def_373 (= .def_372 .def_368))) (let ((.def_374 (or .def_373 .def_366))) (let ((.def_375 (or .def_374 .def_359))) (let ((.def_376 (and .def_375 .def_345))) (let ((.def_377 (not .def_376))) (let ((.def_378 (or A6 .def_107))) (let ((.def_379 (not .def_378))) (let ((.def_380 (+ .def_4 .def_188))) (let ((.def_381 (< .def_380 1))) (let ((.def_382 (not .def_381))) (let ((.def_383 (or A0 .def_382))) (let ((.def_384 (not .def_383))) (let ((.def_385 (and .def_384 .def_379))) (let ((.def_386 (not .def_385))) (let ((.def_387 (< .def_4 (- 1)))) (let ((.def_388 (not .def_387))) (let ((.def_389 (and .def_388 .def_138))) (let ((.def_390 (+ .def_27 .def_0))) (let ((.def_391 (< .def_390 1))) (let ((.def_392 (not .def_391))) (let ((.def_393 (or .def_392 .def_59))) (let ((.def_394 (and .def_393 .def_389))) (let ((.def_395 (not .def_394))) (let ((.def_396 (and .def_395 .def_386))) (let ((.def_397 (not .def_396))) (let ((.def_398 (< .def_94 1))) (let ((.def_399 (or .def_239 .def_398))) (let ((.def_400 (not .def_399))) (let ((.def_401 (+ .def_94 .def_27))) (let ((.def_402 (< .def_401 1))) (let ((.def_403 (not .def_402))) (let ((.def_404 (and A4 .def_403))) (let ((.def_405 (or .def_404 .def_400))) (let ((.def_406 (+ .def_46 .def_13))) (let ((.def_407 (< .def_406 1))) (let ((.def_408 (not .def_407))) (let ((.def_409 (= .def_408 .def_398))) (let ((.def_410 (not .def_409))) (let ((.def_411 (or A3 .def_162))) (let ((.def_412 (and .def_411 .def_410))) (let ((.def_413 (and .def_412 .def_405))) (let ((.def_414 (and .def_413 .def_397))) (let ((.def_415 (< .def_0 1))) (let ((.def_416 (and A5 .def_415))) (let ((.def_417 (or .def_89 .def_120))) (let ((.def_418 (not .def_417))) (let ((.def_419 (and .def_418 .def_416))) (let ((.def_420 (< .def_34 1))) (let ((.def_421 (not .def_420))) (let ((.def_422 (or .def_421 A4))) (let ((.def_423 (and .def_17 A4))) (let ((.def_424 (not .def_423))) (let ((.def_425 (or .def_424 .def_422))) (let ((.def_426 (not .def_425))) (let ((.def_427 (= .def_426 .def_419))) (let ((.def_428 (+ .def_46 .def_0))) (let ((.def_429 (< .def_428 (- 1)))) (let ((.def_430 (not .def_429))) (let ((.def_431 (or A5 .def_430))) (let ((.def_432 (not .def_431))) (let ((.def_433 (or A0 .def_162))) (let ((.def_434 (not .def_433))) (let ((.def_435 (and .def_434 .def_432))) (let ((.def_436 (< .def_62 1))) (let ((.def_437 (+ .def_267 .def_19))) (let ((.def_438 (< .def_437 1))) (let ((.def_439 (not .def_438))) (let ((.def_440 (and .def_439 .def_436))) (let ((.def_441 (and .def_349 A2))) (let ((.def_442 (and .def_441 .def_440))) (let ((.def_443 (and .def_442 .def_435))) (let ((.def_444 (not .def_443))) (let ((.def_445 (and .def_444 .def_427))) (let ((.def_446 (or .def_445 .def_414))) (let ((.def_447 (not .def_446))) (let ((.def_448 (= .def_447 .def_377))) (let ((.def_449 (not .def_448))) (let ((.def_450 (or .def_168 .def_259))) (let ((.def_451 (not .def_450))) (let ((.def_452 (= .def_107 .def_189))) (let ((.def_453 (and .def_452 .def_451))) (let ((.def_454 (not .def_453))) (let ((.def_455 (+ .def_9 .def_5))) (let ((.def_456 (< .def_455 (- 1)))) (let ((.def_457 (not .def_456))) (let ((.def_458 (and A4 .def_457))) (let ((.def_459 (not .def_458))) (let ((.def_460 (or A8 A4))) (let ((.def_461 (not .def_460))) (let ((.def_462 (or .def_461 .def_459))) (let ((.def_463 (and .def_462 .def_454))) (let ((.def_464 (+ .def_0 .def_62))) (let ((.def_465 (< .def_464 1))) (let ((.def_466 (not .def_465))) (let ((.def_467 (or .def_466 .def_73))) (let ((.def_468 (and .def_259 .def_72))) (let ((.def_469 (not .def_468))) (let ((.def_470 (and .def_469 .def_467))) (let ((.def_471 (not .def_470))) (let ((.def_472 (= A2 A5))) (let ((.def_473 (+ .def_34 .def_46))) (let ((.def_474 (< .def_473 1))) (let ((.def_475 (not .def_474))) (let ((.def_476 (or A8 .def_475))) (let ((.def_477 (not .def_476))) (let ((.def_478 (or .def_477 .def_472))) (let ((.def_479 (not .def_478))) (let ((.def_480 (and .def_479 .def_471))) (let ((.def_481 (not .def_480))) (let ((.def_482 (or .def_481 .def_463))) (let ((.def_483 (+ .def_188 .def_18))) (let ((.def_484 (< .def_483 1))) (let ((.def_485 (not .def_484))) (let ((.def_486 (= .def_222 .def_485))) (let ((.def_487 (+ .def_4 .def_5))) (let ((.def_488 (< .def_487 (- 1)))) (let ((.def_489 (not .def_488))) (let ((.def_490 (and .def_489 .def_162))) (let ((.def_491 (and .def_490 .def_486))) (let ((.def_492 (not .def_301))) (let ((.def_493 (or .def_492 .def_173))) (let ((.def_494 (not .def_493))) (let ((.def_495 (or .def_494 .def_491))) (let ((.def_496 (not .def_495))) (let ((.def_497 (< .def_123 1))) (let ((.def_498 (and .def_107 .def_497))) (let ((.def_499 (not .def_498))) (let ((.def_500 (or .def_61 .def_107))) (let ((.def_501 (not .def_500))) (let ((.def_502 (and .def_501 .def_499))) (let ((.def_503 (not .def_502))) (let ((.def_504 (+ .def_267 .def_5))) (let ((.def_505 (< .def_504 1))) (let ((.def_506 (not .def_505))) (let ((.def_507 (and .def_506 .def_105))) (let ((.def_508 (+ .def_34 .def_123))) (let ((.def_509 (< .def_508 1))) (let ((.def_510 (and .def_107 .def_509))) (let ((.def_511 (not .def_510))) (let ((.def_512 (and .def_511 .def_507))) (let ((.def_513 (not .def_512))) (let ((.def_514 (and .def_513 .def_503))) (let ((.def_515 (and .def_514 .def_496))) (let ((.def_516 (not .def_515))) (let ((.def_517 (and .def_516 .def_482))) (let ((.def_518 (+ .def_188 .def_267))) (let ((.def_519 (< .def_518 1))) (let ((.def_520 (and A5 .def_519))) (let ((.def_521 (not .def_520))) (let ((.def_522 (or .def_120 A5))) (let ((.def_523 (not .def_522))) (let ((.def_524 (and .def_523 .def_521))) (let ((.def_525 (not .def_524))) (let ((.def_526 (and A6 .def_72))) (let ((.def_527 (not .def_367))) (let ((.def_528 (not .def_1))) (let ((.def_529 (or .def_528 .def_527))) (let ((.def_530 (and .def_529 .def_526))) (let ((.def_531 (not .def_530))) (let ((.def_532 (and .def_531 .def_525))) (let ((.def_533 (= .def_1 A0))) (let ((.def_534 (and .def_73 A7))) (let ((.def_535 (not .def_534))) (let ((.def_536 (or .def_535 .def_533))) (let ((.def_537 (not .def_536))) (let ((.def_538 (< .def_428 1))) (let ((.def_539 (or .def_538 A4))) (let ((.def_540 (not .def_539))) (let ((.def_541 (and .def_89 .def_120))) (let ((.def_542 (not .def_541))) (let ((.def_543 (or .def_542 .def_540))) (let ((.def_544 (not .def_543))) (let ((.def_545 (or .def_544 .def_537))) (let ((.def_546 (not .def_545))) (let ((.def_547 (and .def_546 .def_532))) (let ((.def_548 (not .def_547))) (let ((.def_549 (and A3 .def_388))) (let ((.def_550 (not .def_549))) (let ((.def_551 (or A9 .def_61))) (let ((.def_552 (not .def_551))) (let ((.def_553 (or .def_552 .def_550))) (let ((.def_554 (not .def_553))) (let ((.def_555 (or .def_420 A8))) (let ((.def_556 (+ .def_27 .def_267))) (let ((.def_557 (< .def_556 (- 1)))) (let ((.def_558 (not .def_557))) (let ((.def_559 (or .def_107 .def_558))) (let ((.def_560 (and .def_559 .def_555))) (let ((.def_561 (and .def_560 .def_554))) (let ((.def_562 (not .def_561))) (let ((.def_563 (+ .def_27 .def_5))) (let ((.def_564 (< .def_563 1))) (let ((.def_565 (or .def_265 .def_564))) (let ((.def_566 (+ .def_62 .def_46))) (let ((.def_567 (< .def_566 1))) (let ((.def_568 (not .def_567))) (let ((.def_569 (+ .def_34 .def_58))) (let ((.def_570 (< .def_569 1))) (let ((.def_571 (not .def_570))) (let ((.def_572 (= .def_571 .def_568))) (let ((.def_573 (and .def_572 .def_565))) (let ((.def_574 (and A8 .def_17))) (let ((.def_575 (or .def_73 .def_17))) (let ((.def_576 (not .def_575))) (let ((.def_577 (and .def_576 .def_574))) (let ((.def_578 (not .def_577))) (let ((.def_579 (or .def_578 .def_573))) (let ((.def_580 (not .def_579))) (let ((.def_581 (or .def_580 .def_562))) (let ((.def_582 (or .def_581 .def_548))) (let ((.def_583 (not .def_582))) (let ((.def_584 (or .def_583 .def_517))) (let ((.def_585 (not .def_584))) (let ((.def_586 (or .def_585 .def_449))) (let ((.def_587 (and .def_586 .def_311))) (let ((.def_588 (not .def_587))) (let ((.def_589 (<= x9 1))) (let ((.def_590 (<= 0 x9))) (let ((.def_591 (<= x8 1))) (let ((.def_592 (<= 0 x8))) (let ((.def_593 (<= x7 1))) (let ((.def_594 (<= 0 x7))) (let ((.def_595 (<= x6 1))) (let ((.def_596 (<= 0 x6))) (let ((.def_597 (<= x5 1))) (let ((.def_598 (<= 0 x5))) (let ((.def_599 (<= x4 1))) (let ((.def_600 (<= 0 x4))) (let ((.def_601 (<= x3 1))) (let ((.def_602 (<= 0 x3))) (let ((.def_603 (<= x2 1))) (let ((.def_604 (<= 0 x2))) (let ((.def_605 (<= x1 1))) (let ((.def_606 (<= 0 x1))) (let ((.def_607 (<= x0 1))) (let ((.def_608 (<= 0 x0))) (let ((.def_609 (and .def_608 .def_607 .def_606 .def_605 .def_604 .def_603 .def_602 .def_601 .def_600 .def_599 .def_598 .def_597 .def_596 .def_595 .def_594 .def_593 .def_592 .def_591 .def_590 .def_589 .def_588))) .def_609)))))))))))))))))))))))))))))))))))))))))))))))))))))))))))))))))))))))))))))))))))))))))))))))))))))))))))))))))))))))))))))))))))))))))))))))))))))))))))))))))))))))))))))))))))))))))))))))))))))))))))))))))))))))))))))))))))))))))))))))))))))))))))))))))))))))))))))))))))))))))))))))))))))))))))))))))))))))))))))))))))))))))))))))))))))))))))))))))))))))))))))))))))))))))))))))))))))))))))))))))))))))))))))))))))))))))))))))))))))))))))))))))))))))))))))))))))))))))))))))))))))))))))))))))))))))))))))))))))))))))))))))))))))))))))))))))))))))))))))))))))))))))))))))))))))))))))))))))))))))))))))))))))
(check-sat)
